GLPSOL: GLPK LP/MIP Solver, v4.55
Parameter(s) specified in the command line:
 -m tmp.mod
Reading model section from tmp.mod...
Reading data section from tmp.mod...
3305 lines were read
Generating obj...
Generating kirhoff...
Generating init_charge...
Generating batt_size...
Model has been successfully generated
GLPK Simplex Optimizer, v4.55
3875 rows, 5156 columns, 10532 non-zeros
Preprocessing...
2586 rows, 5050 columns, 10346 non-zeros
Scaling...
 A: min|aij| =  1.000e+00  max|aij| =  1.000e+00  ratio =  1.000e+00
Problem data seem to be well scaled
Constructing initial basis...
Size of triangular part is 1965
      0: obj =   0.000000000e+00  infeas =  8.600e+02 (621)
    500: obj =   9.500000000e+01  infeas =  1.390e+02 (440)
*   621: obj =   1.130000000e+02  infeas =  0.000e+00 (418)
*   695: obj =   1.300000000e+01  infeas =  0.000e+00 (418)
OPTIMAL LP SOLUTION FOUND
Time used:   0.1 secs
Memory used: 10.6 Mb (11166928 bytes)
#OUTPUT:
13
3 4 0 0 0 0 -1 -1 0 0 0 0 0 0 0 -1 0 -1 0 0 0 4 0 3 0 0 0 -3 0 8 -3 4 -3 0 0 0 0 -3 4 0 0 0 0 -1 0 0 0 0 0 -4 0 0 0 0 0 0 0 -1 0 0 0 -3 0 0 0 0 0 0 0 0 -3 0 0 0 0 0 0 0 0 0 0 0 0 4 0 0 0 0 0 0 0 0 0 0 0 0 0 -4 -3 0 0 -3 1 0 0 0 0 0 0 0 0 0 0 0 -1 0 0 0 0 0 0 0 0 0 0 0 0 0 0 0 0 0 0 0 0 0 0 0 0 0 0 0 0 0 0 0 1 0 0 0 0 0 0 0 0 0 0 0 0 0 0 0 0 -3 0 0 0 0 0 0 0 0 0 0 0 0 0 0 0 0 0 0 -3 0 0 0 0 0 0 0 0 0 0 0 0 0 0 0 0 0 0 0 0 0 0 0 0 0 0 0 0 0 -3 0 -1 0 0 0 0 0 0 -1 0 0 0 -3 0 0 0 0 0 0 0 0 0 0 0 0 0 0 0 -1 0 4 0 0 0 0 -4 0 4 -1 0 1 0 0 0 0 0 -1 1 0 -1 0 0 0 0 0 0 0 0 0 0 3 0 0 3 0 0 0 0 0 0 0 0 0 0 0 0 0 0 3 0 0 0 1 0 0 3 1 -1 0 0 0 0 -6 0 -4 0 0 0 0 0 0 0 0 0 0 0 0 0 0 0 0 0 0 0 0 0 0 0 0 0 0 0 0 0 0 0 0 0 0 0 0 0 0 0 0 0 0 0 0 0 0 0 0 0 0 0 0 0 0 0 0 0 0 0 0 0 0 0 0 0 0 0 0 0 0 0 0 0 0 0 0 0 0 0 0 0 0 0 0 0 0 0 0 0 0 0 0 0 0 0 0 0 0 0 
8 10 0 0 0 0 -2 0 0 0 0 0 0 0 0 -1 0 0 0 -1 0 10 0 3 0 0 0 -3 0 14 -3 4 -3 0 0 0 -5 -3 4 0 0 0 0 -1 0 0 1 1 0 -4 0 0 0 0 0 0 0 0 0 0 0 -3 0 0 0 0 0 0 0 0 -3 0 0 0 0 0 0 0 0 0 0 0 0 4 0 0 0 0 0 0 0 -1 0 0 0 0 0 -4 -3 -1 0 -4 0 -4 0 0 0 0 0 0 0 0 0 0 0 0 0 0 1 0 0 0 0 1 0 0 0 0 0 0 0 -5 0 0 0 0 0 0 0 0 0 0 0 0 1 0 1 0 0 0 0 0 0 0 0 0 0 0 0 0 0 0 0 -3 0 0 0 0 0 0 0 0 0 0 0 0 0 0 0 0 0 0 -3 0 0 0 0 0 0 0 0 0 0 0 0 0 0 0 0 0 0 0 0 0 0 0 0 0 0 -1 0 0 -4 0 0 0 0 0 0 0 0 -1 0 0 0 -3 0 0 0 0 0 0 0 0 0 0 0 0 0 0 0 0 0 4 0 0 0 6 -4 1 4 0 4 0 0 0 0 0 0 4 0 0 -1 0 0 0 -5 5 0 0 0 0 0 3 0 0 3 0 0 0 0 0 0 0 0 0 0 1 0 0 0 3 1 0 0 1 0 0 3 0 0 0 0 0 0 -6 0 -4 0 0 0 0 0 0 0 0 0 0 0 0 0 0 0 0 0 0 0 0 0 0 0 0 0 0 0 0 0 0 0 0 0 0 0 0 0 0 0 0 0 0 0 0 0 0 0 0 0 0 0 0 0 0 0 0 0 0 0 0 0 0 0 0 0 0 0 0 0 0 0 0 0 0 0 0 0 0 0 0 0 0 0 0 0 0 0 0 0 0 0 0 0 0 0 0 0 0 0 
-33 -23 1 0 0 0 -10 -1 -2 0 0 -1 0 0 0 -1 0 -1 2 -7 2 -24 0 0 0 0 0 -7 0 -22 -1 -98 -3 0 0 -5 -71 -7 4 8 1 0 2 0 4 0 -77 1 0 -7 1 0 0 0 0 0 2 -3 0 -99 0 -1 -4 2 -2 7 0 0 0 -1 -3 0 0 0 0 0 0 0 0 0 -13 0 0 4 0 0 0 0 0 -75 0 -5 0 0 0 0 0 0 -3 2 0 0 7 -2 0 0 2 0 0 0 0 0 0 0 -3 0 0 0 1 0 0 0 0 67 0 0 0 0 0 0 -99 -5 0 11 -1 -12 0 0 0 0 -2 0 0 0 67 -4 2 0 0 0 0 0 2 -21 0 0 0 0 0 0 -75 -3 0 -3 0 0 0 0 0 -1 0 0 0 0 0 0 2 0 0 0 0 0 -7 0 0 -99 0 -1 0 0 -2 0 0 0 0 0 0 0 0 0 -2 0 0 0 12 0 0 0 0 2 0 -2 0 0 -11 0 0 0 0 0 0 -1 0 0 0 -3 0 0 0 0 0 0 0 0 -1 0 0 0 0 0 0 -3 0 1 2 -11 0 72 -3 1 0 -7 2 0 0 0 7 0 0 4 2 -5 -2 0 2 0 2 73 3 0 0 0 1 7 -2 0 7 1 1 2 0 0 0 0 -12 0 0 -2 0 0 2 0 0 0 0 1 0 0 17 -3 -11 0 0 1 0 -20 -21 -1 -2 11 0 0 0 0 0 0 0 0 0 0 0 0 0 0 0 0 0 0 0 0 0 0 0 0 0 0 0 0 0 0 0 0 0 0 0 0 0 0 0 0 0 0 0 0 0 0 0 0 0 0 0 0 0 0 0 0 0 0 0 0 0 0 0 0 0 0 0 0 0 0 0 0 0 0 0 0 0 0 0 0 0 0 0 0 0 0 0 0 0 0 0 0 0 0 0 0 0 
-21 -11 0 0 0 0 -10 0 -5 0 0 0 -2 0 0 -1 0 0 -1 -3 0 -11 0 0 0 0 0 -2 0 0 0 0 0 0 0 -8 1 0 0 7 0 0 0 0 0 0 1 1 0 -9 0 0 0 0 0 0 0 0 0 0 0 0 0 0 -3 7 0 0 0 0 0 0 0 -33 0 -2 0 0 0 0 11 0 0 0 0 0 0 0 0 0 0 0 0 0 0 -85 0 -11 0 -1 0 -2 7 1 0 0 0 0 0 0 0 0 0 0 0 0 0 0 1 0 0 0 0 0 0 1 0 0 0 0 0 -5 0 84 1 0 -33 0 0 0 0 0 0 0 0 0 0 0 0 0 0 0 0 0 0 -4 0 0 0 0 0 7 0 0 0 0 0 0 0 1 0 0 0 0 0 0 3 0 0 0 0 0 0 0 0 0 0 0 0 0 0 0 0 0 -2 0 0 0 0 0 0 0 0 0 0 0 0 0 0 -1 0 0 -2 0 0 0 0 0 0 0 0 -1 0 0 0 0 0 0 0 0 0 0 0 0 0 0 0 0 0 0 0 0 0 0 0 -84 0 0 0 1 11 -7 -1 0 0 0 5 -2 0 0 0 0 0 7 0 0 0 0 -7 0 0 0 -1 0 -3 0 0 0 0 0 0 2 0 0 0 0 0 1 0 0 0 0 2 0 0 0 1 0 0 0 0 0 0 0 0 0 0 0 0 84 0 0 0 0 0 0 0 0 0 0 0 0 0 0 0 0 0 0 0 0 0 0 0 0 0 0 0 0 0 0 0 0 0 0 0 0 0 0 0 0 0 0 0 0 0 0 0 0 0 0 0 0 0 0 0 0 0 0 0 0 0 0 0 0 0 0 0 0 0 0 0 0 0 0 0 0 0 0 0 0 0 0 0 0 0 0 0 0 0 0 0 0 0 0 0 0 0 
-1 0 0 0 0 0 -1 0 0 0 0 0 0 0 0 0 0 0 0 0 0 0 0 0 0 0 0 0 0 0 0 0 0 0 0 0 0 0 0 0 0 0 0 0 0 0 -77 0 0 0 0 0 0 0 0 0 0 0 0 0 0 0 0 0 0 0 0 0 0 0 0 0 0 0 0 0 0 0 0 0 0 0 0 0 0 0 0 0 0 -76 0 0 0 0 0 0 0 0 0 1 0 0 0 -1 0 0 0 0 0 0 0 0 0 0 0 0 0 0 0 0 0 0 0 -1 0 0 0 0 0 0 0 -5 0 0 0 0 0 0 0 0 0 0 0 0 82 0 0 0 0 0 0 0 0 0 0 0 0 0 0 0 -76 0 0 0 0 0 0 0 0 0 0 0 0 0 0 0 0 0 0 0 0 -83 0 0 0 0 0 0 0 0 0 0 0 0 0 0 0 0 0 0 0 0 0 0 0 0 0 0 0 1 0 0 0 0 0 0 0 0 0 0 0 0 0 0 0 0 0 0 0 0 0 0 0 0 0 0 0 0 0 0 0 0 0 0 0 0 0 0 0 0 0 0 1 -1 0 0 0 0 0 0 -1 0 0 0 0 0 -5 81 0 0 0 0 0 0 0 0 0 0 0 0 0 0 0 0 0 0 0 -1 0 0 0 0 0 0 0 0 0 0 0 0 0 0 0 0 0 0 0 0 0 0 0 0 0 0 0 0 0 0 0 0 0 0 0 0 0 0 0 0 0 0 0 0 0 0 0 0 0 0 0 0 0 0 0 0 0 0 0 0 0 0 0 0 0 0 0 0 0 0 0 0 0 0 0 0 0 0 0 0 0 0 0 0 0 0 0 0 0 0 0 0 0 0 0 0 0 0 0 0 0 0 0 0 0 0 0 0 0 0 0 0 0 0 0 0 0 0 0 
-74 -74 0 0 0 0 0 0 0 0 0 0 0 0 0 0 0 0 0 0 0 -74 0 0 0 0 0 0 0 0 0 0 0 0 0 0 0 0 0 0 0 0 0 0 0 0 0 0 0 0 0 0 0 0 0 0 0 0 -74 0 0 0 0 0 0 0 0 0 0 0 0 0 0 0 0 0 0 0 0 0 0 0 0 0 0 0 0 0 0 0 0 0 0 0 0 0 0 0 0 0 0 0 0 0 0 0 0 0 0 0 0 0 0 0 0 0 0 0 0 0 0 0 0 0 0 0 0 0 -74 0 0 0 0 0 0 0 0 0 0 0 0 0 0 0 0 0 0 0 0 0 0 0 0 0 0 0 0 0 0 0 0 0 0 0 0 0 0 0 0 0 0 0 0 0 0 0 0 0 0 0 0 0 0 0 0 0 0 0 0 0 0 0 0 0 0 0 0 0 0 0 0 0 0 0 0 0 0 0 0 0 0 0 0 0 0 0 0 0 0 0 0 0 0 0 0 0 0 0 0 0 0 0 0 0 0 0 0 0 0 0 0 0 0 0 0 0 0 0 0 0 0 0 0 0 0 0 0 0 0 0 0 0 0 0 0 0 0 0 0 0 0 0 0 0 0 0 0 0 0 0 0 0 0 0 0 0 0 0 0 0 0 0 0 0 0 0 0 0 0 0 0 0 0 0 0 0 0 0 0 0 0 0 0 0 0 0 0 0 0 0 0 0 0 0 0 0 0 0 0 0 0 0 0 0 0 0 0 0 0 0 0 0 0 0 0 0 0 0 0 0 0 0 0 0 0 0 0 0 0 0 0 0 0 0 0 0 0 0 0 0 0 0 0 0 0 0 0 0 0 0 0 0 0 0 0 0 0 0 0 0 0 0 0 0 0 0 0 0 0 0 0 0 0 0 0 0 0 
#OUTPUT END
Model has been successfully processed
